TP1-20240930T141713Z-001/TP1/104276.lp
/* MINIMIZAR: */

min: x7 + x10 + x11;

/* SUJEITO A: */

x7 >= 0;
x7 >= 7 y7_5 + 7 y7_4 - 7 y9_2 - 7 y11_4 - 7 y10_3;

x10 >= 0;
x10 >= 10 y10_5 + 10 y10_4 + 10 y10_3 + 10 y10_2;

x11 >= 0;
x11 >= 11 y11_5 + 11 y11_4 + 11 y11_3 + 11 y11_2;

y7_5 + y7_4 - y9_2 - y11_4 - y10_3 <= 8;
y10_5 + y10_4 + y10_3 + y10_2 <= 5;

y9_2 + y8_2 + y7_5 + y6_4 + y5_3 + y4_2 + y4_2 + y3_2 + y11_2 + y10_2 >= 4;
y9_3 + y8_5 + y7_4 + y6_3 + y6_3 + y5_3 + y4_3 + y11_3 + y10_3 - y3_2 >= 10;
y9_5 + y8_4 + y8_4 + y7_4 + y6_4 + y5_4 + y11_4 + y10_4 - y4_3 - y4_2 >= 8;
y9_5 + y8_5 + y7_5 + y6_5 + y11_5 + y10_5 + y10_5 - y5_4 - y5_3 >= 5;

y9_3 + y8_2 + y11_5 + y10_4 - y6_5 - y6_4 - y6_3 >= 0;
y11_3 + y10_2 - y8_5 - y8_4 - y8_2 >= 0;
y11_2 - y9_5 - y9_3 - y9_2 >= 0;

/* --- */

int y9_5, y9_3, y9_2, y8_5, y8_4, y8_2, y7_5, y7_4, y6_5, y6_4, y6_3, y5_4, y5_3, y4_3, y4_2, y3_2, y11_5, y11_4, y11_3, y11_2, y10_5, y10_4, y10_3, y10_2;
