TP2-20240930T141715Z-001/TP2/104276.txt
14
25
9 1 0 30
7 3 0 30
9 2 0 120
8 3 0 120
9 5 0 70
11 3 0 70
7 2 0 30
8 1 0 30
8 4 0 80
10 2 0 80
11 4 0 70
10 5 0 70
11 6 0 70
12 5 0 70
10 6 0 80
12 4 0 80
14 6 1000 1000
9 13 1000 1000
1 7 0 1000
2 8 0 1000
3 9 0 1000
4 10 0 1000
5 11 0 1000
6 12 0 1000
13 14 0 1000
0
0
0
0
0
-1000
0
0
1000
0
0
0
0
0
